25214733374398298975014,6,1,2,011,13,1,2,014,8,1,2,02,8,1,2,03,6,1,2,010,1,1,2,010,7,1,2,04,7,1,2,03,13,1,2,01,4,1,2,014,15,1,2,06,11,1,2,013,3,1,2,013,10,1,2,01,8,1,2,015,5,1,2,015,8,1,2,015,9,1,2,05,2,1,2,03,6,1,2,011,12,1,2,08,7,1,2,06,11,1,2,013,10,1,2,014,12,1,2,012,5,1,2,03,10,1,2,014,13,1,2,01,8,1,2,011,12,1,2,010,6,1,2,06,2,1,2,02,10,1,2,012,13,1,2,07,6,1,2,011,7,1,2,010,12,1,2,09,15,1,2,01,12,1,2,04,8,1,2,09,7,1,2,09,14,1,2,07,15,1,2,012,12,1,2,012,15,1,2,012,14,1,2,05,15,1,2,08,9,1,2,09,2,1,2,08,3,1,2,0